(declare-fun var0 () String)
(assert (str.in.re var0 (re.++ (re.+ (re.+ (str.to.re "dd"))) (re.++ (re.union (re.+ (str.to.re "aa")) (re.union (str.to.re "bb") (str.to.re "ccc"))) (re.++ (re.union (re.union (str.to.re "77") (str.to.re "88")) (re.* (str.to.re "999"))) (re.++ (re.union (re.* (str.to.re "4")) (re.union (str.to.re "5") (str.to.re "6"))) (re.++ (re.+ (re.* (str.to.re "33"))) (re.++ (re.* (re.union (str.to.re "111") (str.to.re "2"))) (re.++ (re.+ (re.+ (str.to.re "00"))) (re.++ (re.union (re.union (str.to.re "|||") (str.to.re "}}")) (re.* (str.to.re "~"))) (re.++ (re.union (re.+ (str.to.re "`")) (re.+ (str.to.re "{"))) (re.++ (re.+ (re.* (str.to.re "___"))) (re.++ (re.* (re.* (str.to.re "^^"))) (re.++ (re.union (re.+ (str.to.re "\\\\")) (re.* (str.to.re "]]]"))) (re.++ (re.+ (re.union (str.to.re "@@") (str.to.re "[["))) (re.++ (re.* (re.union (str.to.re ">>") (str.to.re "??"))) (re.++ (re.* (re.* (str.to.re "=="))) (re.++ (re.* (re.+ (str.to.re "<"))) (re.++ (re.* (re.+ (str.to.re ";;;"))) (re.++ (re.union (re.* (str.to.re "//")) (re.+ (str.to.re ":"))) (re.++ (re.* (re.+ (str.to.re ".."))) (re.++ (re.union (re.* (str.to.re ",,")) (re.+ (str.to.re "---"))) (re.++ (re.* (re.union (str.to.re "***") (str.to.re "+"))) (re.++ (re.+ (re.+ (str.to.re ")))"))) (re.++ (re.union (re.union (str.to.re "&&") (str.to.re "'''")) (re.+ (str.to.re "("))) (re.++ (re.union (re.* (str.to.re "###")) (re.union (str.to.re "$$") (str.to.re "%%"))) (re.++ (re.* (re.union (str.to.re "!!") (str.to.re """"""""))) (re.++ (re.* (re.+ (str.to.re "ZZ"))) (re.++ (re.* (re.union (str.to.re "XXX") (str.to.re "YYY"))) (re.++ (re.* (re.union (str.to.re "VVV") (str.to.re "WW"))) (re.++ (re.+ (re.+ (str.to.re "UU"))) (re.++ (re.+ (re.* (str.to.re "TT"))) (re.++ (re.+ (re.union (str.to.re "RRR") (str.to.re "SSS"))) (re.++ (re.+ (re.* (str.to.re "QQQ"))) (re.++ (re.* (re.* (str.to.re "P"))) (re.++ (re.union (re.union (str.to.re "MM") (str.to.re "N")) (re.+ (str.to.re "O"))) (re.++ (re.+ (re.+ (str.to.re "LLL"))) (re.++ (re.+ (re.+ (str.to.re "KKK"))) (re.++ (re.+ (re.union (str.to.re "II") (str.to.re "JJ"))) (re.++ (re.union (re.union (str.to.re "FF") (str.to.re "G")) (re.* (str.to.re "HH"))) (re.++ (re.* (re.union (str.to.re "DDD") (str.to.re "E"))) (re.++ (re.union (re.+ (str.to.re "BB")) (re.+ (str.to.re "C"))) (re.++ (re.union (re.union (str.to.re "y") (str.to.re "zzz")) (re.+ (str.to.re "AA"))) (re.++ (re.+ (re.+ (str.to.re "xxx"))) (re.++ (re.+ (re.* (str.to.re "ww"))) (re.++ (re.+ (re.+ (str.to.re "vvv"))) (re.++ (re.union (re.+ (str.to.re "sss")) (re.union (str.to.re "t") (str.to.re "uu"))) (re.++ (re.* (re.union (str.to.re "qqq") (str.to.re "rr"))) (re.++ (re.+ (re.+ (str.to.re "ppp"))) (re.++ (re.union (re.union (str.to.re "mmm") (str.to.re "nnn")) (re.+ (str.to.re "ooo"))) (re.++ (re.* (re.+ (str.to.re "lll"))) (re.++ (re.union (re.* (str.to.re "jj")) (re.+ (str.to.re "k"))) (re.++ (re.+ (re.union (str.to.re "h") (str.to.re "i"))) (re.++ (re.* (re.union (str.to.re "fff") (str.to.re "ggg"))) (re.++ (re.union (re.+ (str.to.re "cc")) (re.union (str.to.re "d") (str.to.re "eee"))) (re.++ (re.union (re.union (str.to.re "999") (str.to.re "aa")) (re.* (str.to.re "b"))) (re.++ (re.* (re.* (str.to.re "88"))) (re.++ (re.union (re.union (str.to.re "555") (str.to.re "66")) (re.+ (str.to.re "777"))) (re.++ (re.union (re.+ (str.to.re "2")) (re.union (str.to.re "33") (str.to.re "44"))) (re.++ (re.+ (re.+ (str.to.re "1"))) (re.++ (re.* (re.union (str.to.re "~") (str.to.re "00"))) (re.++ (re.union (re.+ (str.to.re "|")) (re.+ (str.to.re "}}}"))) (re.++ (re.union (re.+ (str.to.re "`")) (re.* (str.to.re "{{{"))) (re.++ (re.+ (re.union (str.to.re "^^^") (str.to.re "___"))) (re.++ (re.* (re.+ (str.to.re "]"))) (re.++ (re.* (re.* (str.to.re "\\\\"))) (re.++ (re.+ (re.union (str.to.re "@@") (str.to.re "[[["))) (re.++ (re.* (re.* (str.to.re "??"))) (re.++ (re.* (re.union (str.to.re "=") (str.to.re ">>>"))) (re.++ (re.+ (re.* (str.to.re "<<<"))) (re.++ (re.* (re.union (str.to.re ":") (str.to.re ";;;"))) (re.++ (re.* (re.+ (str.to.re "//"))) (re.++ (re.+ (re.+ (str.to.re ".."))) (re.++ (re.+ (re.union (str.to.re ",,,") (str.to.re "---"))) (re.++ (re.union (re.* (str.to.re "*")) (re.+ (str.to.re "++"))) (re.++ (re.union (re.+ (str.to.re "'")) (re.union (str.to.re "(((") (str.to.re ")"))) (re.++ (re.union (re.union (str.to.re "##") (str.to.re "$")) (re.union (str.to.re "%%%") (str.to.re "&&&"))) (re.++ (re.* (re.+ (str.to.re """"))) (re.++ (re.union (re.+ (str.to.re "Y")) (re.union (str.to.re "ZZZ") (str.to.re "!!!"))) (re.++ (re.* (re.union (str.to.re "W") (str.to.re "XXX"))) (re.++ (re.union (re.* (str.to.re "TTT")) (re.union (str.to.re "UUU") (str.to.re "V"))) (re.++ (re.union (re.* (str.to.re "QQ")) (re.union (str.to.re "R") (str.to.re "SS"))) (re.++ (re.union (re.* (str.to.re "OOO")) (re.+ (str.to.re "PP"))) (re.++ (re.+ (re.+ (str.to.re "NN"))) (re.++ (re.+ (re.* (str.to.re "M"))) (re.++ (re.union (re.union (str.to.re "II") (str.to.re "J")) (re.union (str.to.re "KKK") (str.to.re "LLL"))) (re.++ (re.+ (re.+ (str.to.re "H"))) (re.++ (re.* (re.* (str.to.re "GGG"))) (re.++ (re.+ (re.union (str.to.re "EE") (str.to.re "F"))) (re.++ (re.* (re.union (str.to.re "CC") (str.to.re "DD"))) (re.++ (re.union (re.+ (str.to.re "z")) (re.union (str.to.re "A") (str.to.re "BBB"))) (re.++ (re.union (re.union (str.to.re "ww") (str.to.re "x")) (re.* (str.to.re "yy"))) (re.++ (re.+ (re.union (str.to.re "u") (str.to.re "vvv"))) (re.++ (re.+ (re.union (str.to.re "s") (str.to.re "ttt"))) (re.++ (re.* (re.* (str.to.re "rrr"))) (re.++ (re.union (re.* (str.to.re "p")) (re.+ (str.to.re "qqq"))) (re.++ (re.+ (re.union (str.to.re "nnn") (str.to.re "ooo"))) (re.++ (re.union (re.+ (str.to.re "kk")) (re.union (str.to.re "ll") (str.to.re "mm"))) (re.++ (re.union (re.union (str.to.re "h") (str.to.re "iii")) (re.* (str.to.re "jjj"))) (re.++ (re.union (re.+ (str.to.re "fff")) (re.* (str.to.re "g"))) (re.++ (re.union (re.union (str.to.re "cc") (str.to.re "dd")) (re.+ (str.to.re "eee"))) (re.++ (re.* (re.union (str.to.re "a") (str.to.re "bb"))) (re.++ (re.union (re.* (str.to.re "777")) (re.union (str.to.re "88") (str.to.re "999"))) (re.++ (re.* (re.* (str.to.re "66"))) (re.++ (re.union (re.union (str.to.re "3") (str.to.re "4")) (re.* (str.to.re "5"))) (re.++ (re.+ (re.+ (str.to.re "2"))) (re.++ (re.+ (re.* (str.to.re "11"))) (re.+ (re.* (str.to.re "000"))))))))))))))))))))))))))))))))))))))))))))))))))))))))))))))))))))))))))))))))))))))))))))))))))))))))))))))
(check-sat)